n_boats=46;
n_periods=6;
capacity=[18,35,35,13,2,10,10,29,9,22,6,8,35,32,9,25,24,22,13,24,24,20,14,25,17,6,35,27,24,31,32,12,35,31,11,23,4,22,20,5,29,28,11,12,30,2];
crew=[3,10,18,6,1,6,6,10,2,4,2,4,10,18,2,13,13,5,3,14,10,5,8,12,8,1,15,15,8,9,15,3,11,8,5,7,2,9,7,1,9,15,2,3,12,1];
